; PUSH cw_2 DUP5 PUSH cw_3 SWAP1 SWAP2 SWAP1 => DUP4 PUSH cw_2 PUSH cw_3
(set-option :produce-proofs true)
; 
(set-info :status unknown)
(declare-fun storage_t ((_ BitVec 256) (_ BitVec 256) (_ BitVec 256) (_ BitVec 256) (_ BitVec 256) (_ BitVec 256) Int (_ BitVec 256)) (_ BitVec 256))
(declare-fun w_3 () (_ BitVec 256))
(declare-fun w_2 () (_ BitVec 256))
(declare-fun storage_s ((_ BitVec 256) (_ BitVec 256) (_ BitVec 256) (_ BitVec 256) (_ BitVec 256) (_ BitVec 256) Int (_ BitVec 256)) (_ BitVec 256))
(declare-fun exc_halt_t (Int) Bool)
(declare-fun exc_halt_s (Int) Bool)
(declare-fun sc_t (Int) (_ BitVec 6))
(declare-fun stack_t ((_ BitVec 256) (_ BitVec 256) (_ BitVec 256) (_ BitVec 256) (_ BitVec 256) (_ BitVec 256) Int (_ BitVec 6)) (_ BitVec 256))
(declare-fun stack_s ((_ BitVec 256) (_ BitVec 256) (_ BitVec 256) (_ BitVec 256) (_ BitVec 256) (_ BitVec 256) Int (_ BitVec 6)) (_ BitVec 256))
(declare-fun sc_s (Int) (_ BitVec 6))
(declare-fun used_gas_t ((_ BitVec 256) (_ BitVec 256) (_ BitVec 256) (_ BitVec 256) (_ BitVec 256) (_ BitVec 256) Int) Int)
(declare-fun used_gas_s ((_ BitVec 256) (_ BitVec 256) (_ BitVec 256) (_ BitVec 256) (_ BitVec 256) (_ BitVec 256) Int) Int)
(assert
 (exists ((x_0 (_ BitVec 256)) (x_1 (_ BitVec 256)) (x_2 (_ BitVec 256)) (x_3 (_ BitVec 256)) )(let (($x2627 (forall ((w (_ BitVec 256)) )(let ((?x10011 (storage_t x_0 x_1 x_2 x_3 w_2 w_3 3 w)))
 (let ((?x5924 (storage_s x_0 x_1 x_2 x_3 w_2 w_3 6 w)))
 (= ?x5924 ?x10011))))
 ))
 (let (($x3614 (exc_halt_t 3)))
 (let (($x772 (exc_halt_s 6)))
 (let (($x8244 (= $x772 $x3614)))
 (let (($x5408 (forall ((n (_ BitVec 6)) )(let ((?x11304 (sc_t 3)))
 (let (($x10300 (bvsle ?x11304 n)))
 (let ((?x10879 (stack_t x_0 x_1 x_2 x_3 w_2 w_3 3 n)))
 (let ((?x7640 (stack_s x_0 x_1 x_2 x_3 w_2 w_3 6 n)))
 (let (($x4174 (= ?x7640 ?x10879)))
 (or $x4174 $x10300)))))))
 ))
 (let ((?x11304 (sc_t 3)))
 (let ((?x926 (sc_s 6)))
 (let (($x4558 (= ?x926 ?x11304)))
 (let ((?x8470 (used_gas_t x_0 x_1 x_2 x_3 w_2 w_3 0)))
 (let ((?x2297 (used_gas_s x_0 x_1 x_2 x_3 w_2 w_3 0)))
 (let (($x9817 (= ?x2297 ?x8470)))
 (let (($x7596 (forall ((w (_ BitVec 256)) )(let ((?x11834 (storage_t x_0 x_1 x_2 x_3 w_2 w_3 0 w)))
 (let ((?x1775 (storage_s x_0 x_1 x_2 x_3 w_2 w_3 0 w)))
 (= ?x1775 ?x11834))))
 ))
 (let (($x56 (exc_halt_t 0)))
 (let (($x57 (exc_halt_s 0)))
 (let (($x58 (= $x57 $x56)))
 (let (($x1948 (forall ((n (_ BitVec 6)) )(let ((?x3133 (stack_t x_0 x_1 x_2 x_3 w_2 w_3 0 n)))
 (let ((?x3326 (stack_s x_0 x_1 x_2 x_3 w_2 w_3 0 n)))
 (let (($x8944 (= ?x3326 ?x3133)))
 (let ((?x63 (sc_t 0)))
 (let (($x8381 (bvsle ?x63 n)))
 (or $x8381 $x8944)))))))
 ))
 (let ((?x63 (sc_t 0)))
 (let ((?x72 (sc_s 0)))
 (let (($x73 (= ?x72 ?x63)))
 (let (($x8743 (not (= ((_ extract 6 6) (bvadd (_ bv1 7) (concat (_ bv0 1) (sc_t 2)))) (_ bv0 1)))))
 (let (($x7890 (exc_halt_t 2)))
 (let (($x9607 (= $x3614 (or $x7890 $x8743))))
 (let (($x5537 (forall ((w (_ BitVec 256)) )(let ((?x5763 (storage_t x_0 x_1 x_2 x_3 w_2 w_3 2 w)))
 (let ((?x10011 (storage_t x_0 x_1 x_2 x_3 w_2 w_3 3 w)))
 (= ?x10011 ?x5763))))
 ))
 (let (($x4387 (forall ((n (_ BitVec 6)) )(let ((?x4976 (stack_t x_0 x_1 x_2 x_3 w_2 w_3 2 n)))
 (let ((?x10879 (stack_t x_0 x_1 x_2 x_3 w_2 w_3 3 n)))
 (let ((?x2714 (sc_t 2)))
 (let (($x4079 (bvsle ?x2714 n)))
 (or $x4079 (= ?x10879 ?x4976)))))))
 ))
 (let (($x8577 (= ?x11304 (bvadd (_ bv1 6) (sc_t 2)))))
 (let (($x10346 (= (used_gas_t x_0 x_1 x_2 x_3 w_2 w_3 3) (+ 3 (used_gas_t x_0 x_1 x_2 x_3 w_2 w_3 2)))))
 (let (($x3084 (= (stack_t x_0 x_1 x_2 x_3 w_2 w_3 3 (sc_t 2)) w_3)))
 (let (($x1144 (not (= ((_ extract 6 6) (bvadd (_ bv1 7) (concat (_ bv0 1) (sc_t 1)))) (_ bv0 1)))))
 (let (($x8377 (exc_halt_t 1)))
 (let (($x6949 (= $x7890 (or $x8377 $x1144))))
 (let (($x3214 (forall ((w (_ BitVec 256)) )(let ((?x11365 (storage_t x_0 x_1 x_2 x_3 w_2 w_3 1 w)))
 (let ((?x5763 (storage_t x_0 x_1 x_2 x_3 w_2 w_3 2 w)))
 (= ?x5763 ?x11365))))
 ))
 (let (($x9052 (forall ((n (_ BitVec 6)) )(let ((?x980 (stack_t x_0 x_1 x_2 x_3 w_2 w_3 1 n)))
 (let ((?x4976 (stack_t x_0 x_1 x_2 x_3 w_2 w_3 2 n)))
 (let ((?x7154 (sc_t 1)))
 (let (($x3297 (bvsle ?x7154 n)))
 (or $x3297 (= ?x4976 ?x980)))))))
 ))
 (let ((?x2714 (sc_t 2)))
 (let (($x6935 (= ?x2714 (bvadd (_ bv1 6) (sc_t 1)))))
 (let ((?x1838 (used_gas_t x_0 x_1 x_2 x_3 w_2 w_3 2)))
 (let (($x4832 (= ?x1838 (+ 3 (used_gas_t x_0 x_1 x_2 x_3 w_2 w_3 1)))))
 (let (($x11948 (= (stack_t x_0 x_1 x_2 x_3 w_2 w_3 2 (sc_t 1)) w_2)))
 (let (($x3416 (not (= ((_ extract 6 6) (bvadd (_ bv1 7) (concat (_ bv0 1) ?x63))) (_ bv0 1)))))
 (let (($x8572 (= $x8377 (or $x56 (not (bvsle (_ bv0 6) (bvadd (_ bv60 6) ?x63))) $x3416))))
 (let (($x10608 (forall ((w (_ BitVec 256)) )(let ((?x11834 (storage_t x_0 x_1 x_2 x_3 w_2 w_3 0 w)))
 (let ((?x11365 (storage_t x_0 x_1 x_2 x_3 w_2 w_3 1 w)))
 (= ?x11365 ?x11834))))
 ))
 (let (($x8900 (forall ((n (_ BitVec 6)) )(let ((?x63 (sc_t 0)))
 (let ((?x11657 (bvadd (_ bv60 6) ?x63)))
 (let (($x10925 (bvsle ?x11657 n)))
 (let ((?x3133 (stack_t x_0 x_1 x_2 x_3 w_2 w_3 0 n)))
 (let ((?x980 (stack_t x_0 x_1 x_2 x_3 w_2 w_3 1 n)))
 (or (= ?x980 ?x3133) $x10925)))))))
 ))
 (let ((?x7154 (sc_t 1)))
 (let (($x262 (= ?x7154 (bvadd (_ bv1 6) ?x63))))
 (let ((?x3806 (used_gas_t x_0 x_1 x_2 x_3 w_2 w_3 1)))
 (let (($x8330 (= (stack_t x_0 x_1 x_2 x_3 w_2 w_3 1 (bvadd (_ bv63 6) ?x63)) (stack_t x_0 x_1 x_2 x_3 w_2 w_3 0 (bvadd (_ bv63 6) ?x63)))))
 (let (($x598 (= (stack_t x_0 x_1 x_2 x_3 w_2 w_3 1 (bvadd (_ bv62 6) ?x63)) (stack_t x_0 x_1 x_2 x_3 w_2 w_3 0 (bvadd (_ bv62 6) ?x63)))))
 (let (($x10191 (= (stack_t x_0 x_1 x_2 x_3 w_2 w_3 1 (bvadd (_ bv61 6) ?x63)) (stack_t x_0 x_1 x_2 x_3 w_2 w_3 0 (bvadd (_ bv61 6) ?x63)))))
 (let ((?x11657 (bvadd (_ bv60 6) ?x63)))
 (let ((?x7229 (stack_t x_0 x_1 x_2 x_3 w_2 w_3 0 ?x11657)))
 (let (($x5221 (= (stack_t x_0 x_1 x_2 x_3 w_2 w_3 1 (bvadd (_ bv63 6) ?x7154)) ?x7229)))
 (let (($x11061 (= $x772 (or (exc_halt_s 5) (not (bvsle (_ bv0 6) (bvadd (_ bv62 6) (sc_s 5))))))))
 (let (($x12001 (forall ((w (_ BitVec 256)) )(let ((?x11897 (storage_s x_0 x_1 x_2 x_3 w_2 w_3 5 w)))
 (let ((?x5924 (storage_s x_0 x_1 x_2 x_3 w_2 w_3 6 w)))
 (= ?x5924 ?x11897))))
 ))
 (let (($x2695 (forall ((n (_ BitVec 6)) )(let ((?x10242 (stack_s x_0 x_1 x_2 x_3 w_2 w_3 5 n)))
 (let ((?x7640 (stack_s x_0 x_1 x_2 x_3 w_2 w_3 6 n)))
 (let ((?x4319 (sc_s 5)))
 (let ((?x4775 (bvadd (_ bv62 6) ?x4319)))
 (let (($x1644 (bvsle ?x4775 n)))
 (or $x1644 (= ?x7640 ?x10242))))))))
 ))
 (let ((?x4319 (sc_s 5)))
 (let (($x9755 (= ?x926 ?x4319)))
 (let (($x11976 (= (used_gas_s x_0 x_1 x_2 x_3 w_2 w_3 6) (+ 3 (used_gas_s x_0 x_1 x_2 x_3 w_2 w_3 5)))))
 (let ((?x5048 (bvadd (_ bv63 6) ?x4319)))
 (let ((?x10044 (stack_s x_0 x_1 x_2 x_3 w_2 w_3 5 ?x5048)))
 (let (($x6952 (= (stack_s x_0 x_1 x_2 x_3 w_2 w_3 6 (bvadd (_ bv62 6) ?x926)) ?x10044)))
 (let ((?x4775 (bvadd (_ bv62 6) ?x4319)))
 (let ((?x2964 (stack_s x_0 x_1 x_2 x_3 w_2 w_3 5 ?x4775)))
 (let (($x7832 (= (stack_s x_0 x_1 x_2 x_3 w_2 w_3 6 (bvadd (_ bv63 6) ?x926)) ?x2964)))
 (let (($x11317 (exc_halt_s 5)))
 (let (($x11380 (= $x11317 (or (exc_halt_s 4) (not (bvsle (_ bv0 6) (bvadd (_ bv61 6) (sc_s 4))))))))
 (let (($x2099 (forall ((w (_ BitVec 256)) )(let ((?x2270 (storage_s x_0 x_1 x_2 x_3 w_2 w_3 4 w)))
 (let ((?x11897 (storage_s x_0 x_1 x_2 x_3 w_2 w_3 5 w)))
 (= ?x11897 ?x2270))))
 ))
 (let (($x7895 (forall ((n (_ BitVec 6)) )(let ((?x6939 (stack_s x_0 x_1 x_2 x_3 w_2 w_3 4 n)))
 (let ((?x10242 (stack_s x_0 x_1 x_2 x_3 w_2 w_3 5 n)))
 (let ((?x4305 (sc_s 4)))
 (let ((?x10386 (bvadd (_ bv61 6) ?x4305)))
 (let (($x3794 (bvsle ?x10386 n)))
 (or $x3794 (= ?x10242 ?x6939))))))))
 ))
 (let ((?x4305 (sc_s 4)))
 (let (($x1510 (= ?x4319 ?x4305)))
 (let ((?x11671 (used_gas_s x_0 x_1 x_2 x_3 w_2 w_3 5)))
 (let (($x11904 (= ?x11671 (+ 3 (used_gas_s x_0 x_1 x_2 x_3 w_2 w_3 4)))))
 (let ((?x8739 (bvadd (_ bv62 6) ?x4305)))
 (let ((?x843 (stack_s x_0 x_1 x_2 x_3 w_2 w_3 4 ?x8739)))
 (let ((?x5445 (bvadd (_ bv63 6) ?x4305)))
 (let ((?x5847 (stack_s x_0 x_1 x_2 x_3 w_2 w_3 4 ?x5445)))
 (let (($x5100 (= (stack_s x_0 x_1 x_2 x_3 w_2 w_3 5 (bvadd (_ bv61 6) ?x4319)) ?x5847)))
 (let (($x7860 (= ?x10044 (stack_s x_0 x_1 x_2 x_3 w_2 w_3 4 (bvadd (_ bv61 6) ?x4305)))))
 (let (($x7172 (exc_halt_s 4)))
 (let (($x11360 (= $x7172 (or (exc_halt_s 3) (not (bvsle (_ bv0 6) (bvadd (_ bv62 6) (sc_s 3))))))))
 (let (($x8709 (forall ((w (_ BitVec 256)) )(let ((?x9896 (storage_s x_0 x_1 x_2 x_3 w_2 w_3 3 w)))
 (let ((?x2270 (storage_s x_0 x_1 x_2 x_3 w_2 w_3 4 w)))
 (= ?x2270 ?x9896))))
 ))
 (let (($x951 (forall ((n (_ BitVec 6)) )(let ((?x7370 (stack_s x_0 x_1 x_2 x_3 w_2 w_3 3 n)))
 (let ((?x6939 (stack_s x_0 x_1 x_2 x_3 w_2 w_3 4 n)))
 (let ((?x275 (sc_s 3)))
 (let ((?x11737 (bvadd (_ bv62 6) ?x275)))
 (let (($x9168 (bvsle ?x11737 n)))
 (or $x9168 (= ?x6939 ?x7370))))))))
 ))
 (let ((?x275 (sc_s 3)))
 (let (($x8517 (= ?x4305 ?x275)))
 (let ((?x70 (used_gas_s x_0 x_1 x_2 x_3 w_2 w_3 4)))
 (let (($x6662 (= ?x70 (+ 3 (used_gas_s x_0 x_1 x_2 x_3 w_2 w_3 3)))))
 (let (($x9438 (= ?x843 (stack_s x_0 x_1 x_2 x_3 w_2 w_3 3 (bvadd (_ bv63 6) ?x275)))))
 (let (($x8927 (= ?x5847 (stack_s x_0 x_1 x_2 x_3 w_2 w_3 3 (bvadd (_ bv62 6) ?x275)))))
 (let (($x5208 (not (= ((_ extract 6 6) (bvadd (_ bv1 7) (concat (_ bv0 1) (sc_s 2)))) (_ bv0 1)))))
 (let (($x247 (exc_halt_s 2)))
 (let (($x292 (exc_halt_s 3)))
 (let (($x7755 (= $x292 (or $x247 $x5208))))
 (let (($x7299 (forall ((w (_ BitVec 256)) )(let ((?x7349 (storage_s x_0 x_1 x_2 x_3 w_2 w_3 2 w)))
 (let ((?x9896 (storage_s x_0 x_1 x_2 x_3 w_2 w_3 3 w)))
 (= ?x9896 ?x7349))))
 ))
 (let (($x11041 (forall ((n (_ BitVec 6)) )(let ((?x4537 (stack_s x_0 x_1 x_2 x_3 w_2 w_3 2 n)))
 (let ((?x7370 (stack_s x_0 x_1 x_2 x_3 w_2 w_3 3 n)))
 (let ((?x218 (sc_s 2)))
 (let (($x3237 (bvsle ?x218 n)))
 (or $x3237 (= ?x7370 ?x4537)))))))
 ))
 (let (($x5654 (= ?x275 (bvadd (_ bv1 6) (sc_s 2)))))
 (let ((?x9098 (used_gas_s x_0 x_1 x_2 x_3 w_2 w_3 3)))
 (let (($x3248 (= ?x9098 (+ 3 (used_gas_s x_0 x_1 x_2 x_3 w_2 w_3 2)))))
 (let (($x8256 (= (stack_s x_0 x_1 x_2 x_3 w_2 w_3 3 (sc_s 2)) w_3)))
 (let (($x2786 (not (= ((_ extract 6 6) (bvadd (_ bv1 7) (concat (_ bv0 1) (sc_s 1)))) (_ bv0 1)))))
 (let (($x189 (exc_halt_s 1)))
 (let (($x3358 (= $x247 (or $x189 $x2786 (not (bvsle (_ bv0 6) (bvadd (_ bv59 6) (sc_s 1))))))))
 (let (($x946 (forall ((w (_ BitVec 256)) )(let ((?x10043 (storage_s x_0 x_1 x_2 x_3 w_2 w_3 1 w)))
 (let ((?x7349 (storage_s x_0 x_1 x_2 x_3 w_2 w_3 2 w)))
 (= ?x7349 ?x10043))))
 ))
 (let (($x11859 (forall ((n (_ BitVec 6)) )(let ((?x3238 (stack_s x_0 x_1 x_2 x_3 w_2 w_3 1 n)))
 (let ((?x4537 (stack_s x_0 x_1 x_2 x_3 w_2 w_3 2 n)))
 (let ((?x154 (sc_s 1)))
 (let ((?x1451 (bvadd (_ bv59 6) ?x154)))
 (let (($x3515 (bvsle ?x1451 n)))
 (or $x3515 (= ?x4537 ?x3238))))))))
 ))
 (let ((?x218 (sc_s 2)))
 (let (($x7269 (= ?x218 (bvadd (_ bv1 6) (sc_s 1)))))
 (let ((?x5070 (used_gas_s x_0 x_1 x_2 x_3 w_2 w_3 2)))
 (let (($x4850 (= ?x5070 (+ 3 (used_gas_s x_0 x_1 x_2 x_3 w_2 w_3 1)))))
 (let ((?x154 (sc_s 1)))
 (let ((?x1249 (bvadd (_ bv63 6) ?x154)))
 (let (($x11757 (= (stack_s x_0 x_1 x_2 x_3 w_2 w_3 2 ?x1249) (stack_s x_0 x_1 x_2 x_3 w_2 w_3 1 ?x1249))))
 (let (($x2275 (= (stack_s x_0 x_1 x_2 x_3 w_2 w_3 2 (bvadd (_ bv62 6) ?x154)) (stack_s x_0 x_1 x_2 x_3 w_2 w_3 1 (bvadd (_ bv62 6) ?x154)))))
 (let (($x570 (= (stack_s x_0 x_1 x_2 x_3 w_2 w_3 2 (bvadd (_ bv61 6) ?x154)) (stack_s x_0 x_1 x_2 x_3 w_2 w_3 1 (bvadd (_ bv61 6) ?x154)))))
 (let (($x5570 (= (stack_s x_0 x_1 x_2 x_3 w_2 w_3 2 (bvadd (_ bv60 6) ?x154)) (stack_s x_0 x_1 x_2 x_3 w_2 w_3 1 (bvadd (_ bv60 6) ?x154)))))
 (let ((?x1451 (bvadd (_ bv59 6) ?x154)))
 (let ((?x7810 (stack_s x_0 x_1 x_2 x_3 w_2 w_3 1 ?x1451)))
 (let (($x9183 (= (stack_s x_0 x_1 x_2 x_3 w_2 w_3 2 (bvadd (_ bv63 6) ?x218)) ?x7810)))
 (let (($x5243 (= $x189 (or $x57 (not (= ((_ extract 6 6) (bvadd (_ bv1 7) (concat (_ bv0 1) ?x72))) (_ bv0 1)))))))
 (let (($x11992 (forall ((w (_ BitVec 256)) )(let ((?x1775 (storage_s x_0 x_1 x_2 x_3 w_2 w_3 0 w)))
 (let ((?x10043 (storage_s x_0 x_1 x_2 x_3 w_2 w_3 1 w)))
 (= ?x10043 ?x1775))))
 ))
 (let (($x2988 (forall ((n (_ BitVec 6)) )(let ((?x3326 (stack_s x_0 x_1 x_2 x_3 w_2 w_3 0 n)))
 (let ((?x3238 (stack_s x_0 x_1 x_2 x_3 w_2 w_3 1 n)))
 (let ((?x72 (sc_s 0)))
 (let (($x3106 (bvsle ?x72 n)))
 (or $x3106 (= ?x3238 ?x3326)))))))
 ))
 (let (($x8600 (= ?x154 (bvadd (_ bv1 6) ?x72))))
 (let ((?x11620 (used_gas_s x_0 x_1 x_2 x_3 w_2 w_3 1)))
 (let (($x1171 (forall ((w (_ BitVec 256)) )(let ((?x1775 (storage_s x_0 x_1 x_2 x_3 w_2 w_3 0 w)))
 (= ?x1775 (_ bv0 256))))
 ))
 (let (($x10697 (= ?x2297 0)))
 (let (($x4855 (not $x57)))
 (let (($x5007 (= (stack_s x_0 x_1 x_2 x_3 w_2 w_3 0 (_ bv3 6)) x_3)))
 (let (($x7687 (= (stack_s x_0 x_1 x_2 x_3 w_2 w_3 0 (_ bv2 6)) x_2)))
 (let (($x4926 (= (stack_s x_0 x_1 x_2 x_3 w_2 w_3 0 (_ bv1 6)) x_1)))
 (let (($x8136 (= (stack_s x_0 x_1 x_2 x_3 w_2 w_3 0 (_ bv0 6)) x_0)))
 (let (($x11199 (= ?x72 (_ bv4 6))))
 (and $x11199 $x8136 $x4926 $x7687 $x5007 $x4855 $x10697 $x1171 (= (stack_s x_0 x_1 x_2 x_3 w_2 w_3 1 ?x72) w_2) (= ?x11620 (+ 3 ?x2297)) $x8600 $x2988 $x11992 $x5243 $x9183 (= (stack_s x_0 x_1 x_2 x_3 w_2 w_3 2 ?x1451) ?x7810) $x5570 $x570 $x2275 $x11757 $x4850 $x7269 $x11859 $x946 $x3358 $x8256 $x3248 $x5654 $x11041 $x7299 $x7755 $x8927 $x9438 $x6662 $x8517 $x951 $x8709 $x11360 $x7860 $x5100 (= ?x2964 ?x843) $x11904 $x1510 $x7895 $x2099 $x11380 $x7832 $x6952 $x11976 $x9755 $x2695 $x12001 $x11061 $x5221 (= (stack_t x_0 x_1 x_2 x_3 w_2 w_3 1 ?x11657) ?x7229) $x10191 $x598 $x8330 (= ?x3806 (+ 3 ?x8470)) $x262 $x8900 $x10608 $x8572 $x11948 $x4832 $x6935 $x9052 $x3214 $x6949 $x3084 $x10346 $x8577 $x4387 $x5537 $x9607 $x73 $x1948 $x58 $x7596 $x9817 (not (and $x4558 $x5408 $x8244 $x2627)))))))))))))))))))))))))))))))))))))))))))))))))))))))))))))))))))))))))))))))))))))))))))))))))))))))))))))))))))))))))))))))))))
 )
(check-sat)
(get-proof)
